1 1 2 0
1 -1 3 0
1 -1 -4 0
1 1 -5 0
1 1 -6 0
1 2 7 0
1 -2 -4 0
1 2 1 0
1 2 5 0
1 -2 -6 0
1 -8 9 0
1 8 10 0
1 8 -11 0
1 8 -12 0
1 8 -13 0
1 8 -14 0
1 -8 5 0
1 8 6 0
1 -11 9 0
1 -11 -10 0
1 -11 15 0
1 -11 4 0
1 -11 12 0
1 11 -8 0
1 4 -16 0
1 4 17 0
1 -4 -11 0
1 4 2 0
1 4 -8 0
1 4 -1 0
1 -4 -6 0
1 6 18 0
1 -6 16 0
1 6 11 0
1 6 -2 0
1 -6 -19 0
1 6 20 0
1 6 -8 0
1 3 16 0
1 -3 21 0
1 3 -11 0
1 -3 2 0
1 -3 22 0
1 -3 19 0
1 3 -8 0
1 -3 -1 0
1 -3 -5 0
1 5 -16 0
1 -5 11 0
1 -5 -2 0
1 -5 3 0
1 -5 -19 0
1 5 -23 0
1 5 24 0
1 -5 -8 0
1 -5 1 0
1 -25 -9 0
1 25 -10 0
1 25 26 0
1 -25 4 0
1 -25 -12 0
1 25 13 0
1 25 -24 0
1 25 6 0
1 -26 -10 0
1 -26 -27 0
1 26 4 0
1 -26 12 0
1 26 13 0
1 26 -25 0
1 -26 6 0
1 20 9 0
1 -20 17 0
1 20 28 0
1 -20 29 0
1 -20 -4 0
1 -20 -12 0
1 20 13 0
1 20 30 0
1 -20 23 0
1 -17 28 0
1 -17 -21 0
1 17 -29 0
1 -17 -4 0
1 -17 12 0
1 -17 -13 0
1 -17 20 0
1 -17 -31 0
1 13 -32 0
1 13 33 0
1 -13 -10 0
1 13 -26 0
1 -13 -11 0
1 13 -34 0
1 -13 35 0
1 -13 20 0
1 -13 25 0
1 13 -8 0
1 13 -36 0
1 10 -32 0
1 10 33 0
1 10 -37 0
1 -10 17 0
1 10 26 0
1 10 11 0
1 10 34 0
1 -10 38 0
1 10 -13 0
1 -10 -25 0
1 -10 8 0
1 12 9 0
1 -12 -39 0
1 -12 16 0
1 -12 -26 0
1 12 -11 0
1 -12 -40 0
1 12 19 0
1 -12 20 0
1 -12 -8 0
1 12 36 0
1 -9 16 0
1 9 17 0
1 -9 26 0
1 9 -11 0
1 9 34 0
1 9 40 0
1 -9 -19 0
1 9 8 0
1 9 36 0
1 -38 33 0
1 -38 10 0
1 -38 -29 0
1 38 13 0
1 38 -19 0
1 38 30 0
1 38 -31 0
1 -33 -28 0
1 -33 38 0
1 33 13 0
1 -33 30 0
1 -33 31 0
1 41 32 0
1 41 -10 0
1 -41 -29 0
1 -41 13 0
1 41 30 0
1 41 -31 0
1 -32 39 0
1 -32 -28 0
1 -32 -41 0
1 32 13 0
1 32 31 0
1 31 32 0
1 -31 -33 0
1 31 17 0
1 -31 -38 0
1 -31 -20 0
1 31 42 0
1 31 -43 0
1 -29 -32 0
1 29 33 0
1 -29 17 0
1 29 44 0
1 -29 41 0
1 29 -20 0
1 29 -31 0
1 -30 32 0
1 -30 -33 0
1 -30 -17 0
1 -30 -45 0
1 30 -34 0
1 -30 -41 0
1 -30 -38 0
1 -30 20 0
1 -30 -46 0
1 -30 -36 0
1 28 32 0
1 -28 -33 0
1 28 -17 0
1 28 45 0
1 -28 47 0
1 28 -41 0
1 -28 -38 0
1 -28 30 0
1 -28 -43 0
1 28 -46 0
1 28 36 0
1 48 -7 0
1 48 49 0
1 48 50 0
1 48 -1 0
1 7 -51 0
1 7 -2 0
1 -7 -49 0
1 -7 50 0
1 -14 51 0
1 14 52 0
1 -14 53 0
1 -14 -54 0
1 -14 49 0
1 14 50 0
1 14 -55 0
1 15 51 0
1 15 53 0
1 -15 11 0
1 15 50 0
1 -15 56 0
1 -15 14 0
1 52 57 0
1 52 -58 0
1 -52 27 0
1 -52 -15 0
1 52 7 0
1 -52 50 0
1 -52 59 0
1 -52 23 0
1 -52 24 0
1 50 57 0
1 50 -21 0
1 50 -15 0
1 -50 -7 0
1 -50 -60 0
1 -50 -23 0
1 -50 -24 0
1 -51 61 0
1 -51 57 0
1 -51 -62 0
1 -51 -59 0
1 51 -63 0
1 51 -14 0
1 -51 -48 0
1 49 51 0
1 -49 -62 0
1 -49 -7 0
1 -49 -64 0
1 -49 -59 0
1 -49 -63 0
1 49 65 0
1 49 48 0
1 -24 53 0
1 24 -27 0
1 -24 -54 0
1 -24 -3 0
1 -24 -50 0
1 -24 -55 0
1 -24 56 0
1 -24 25 0
1 24 -5 0
1 -27 -26 0
1 27 -54 0
1 -27 -50 0
1 27 -55 0
1 23 52 0
1 -23 -21 0
1 -23 53 0
1 23 -54 0
1 23 66 0
1 23 67 0
1 -23 -50 0
1 23 -63 0
1 -23 -68 0
1 23 -69 0
1 23 5 0
1 21 -56 0
1 -21 52 0
1 -21 -17 0
1 -21 70 0
1 21 -54 0
1 21 66 0
1 -21 -67 0
1 21 3 0
1 -21 55 0
1 -21 23 0
1 21 -68 0
1 21 -69 0
1 -21 5 0
1 -54 -71 0
1 54 -56 0
1 -54 -21 0
1 -54 -27 0
1 54 72 0
1 54 15 0
1 54 -73 0
1 -54 40 0
1 -54 19 0
1 -54 -23 0
1 54 24 0
1 -54 14 0
1 56 71 0
1 -56 -27 0
1 56 54 0
1 -56 15 0
1 -56 -40 0
1 56 19 0
1 56 -23 0
1 56 74 0
1 56 -24 0
1 -53 -71 0
1 -53 -21 0
1 53 75 0
1 53 -27 0
1 -53 73 0
1 -53 -76 0
1 53 55 0
1 53 59 0
1 53 -23 0
1 -53 -14 0
1 -55 -71 0
1 55 77 0
1 55 -57 0
1 -55 21 0
1 -55 53 0
1 55 -27 0
1 -55 73 0
1 55 -76 0
1 -55 -59 0
1 55 23 0
1 -55 -14 0
1 -19 -9 0
1 -19 -16 0
1 19 -54 0
1 19 66 0
1 -19 -67 0
1 -19 -3 0
1 -19 -12 0
1 19 -59 0
1 19 56 0
1 -19 68 0
1 -19 -69 0
1 19 5 0
1 19 -6 0
1 -16 -9 0
1 16 33 0
1 16 57 0
1 16 54 0
1 -16 66 0
1 -16 3 0
1 -16 -4 0
1 -16 -19 0
1 -16 69 0
1 -16 -5 0
1 40 18 0
1 -40 39 0
1 40 -66 0
1 -40 67 0
1 40 -78 0
1 40 -12 0
1 40 41 0
1 40 -56 0
1 40 69 0
1 -40 79 0
1 -39 32 0
1 39 9 0
1 39 77 0
1 -39 54 0
1 39 -66 0
1 -39 22 0
1 39 -78 0
1 39 -12 0
1 -39 40 0
1 -39 68 0
1 -39 -69 0
1 -39 79 0
1 -67 -39 0
1 67 -16 0
1 -67 -80 0
1 -67 47 0
1 -67 -34 0
1 67 40 0
1 -67 19 0
1 67 23 0
1 -67 -46 0
1 -67 36 0
1 -69 39 0
1 -69 -16 0
1 -69 -21 0
1 69 -67 0
1 -69 -80 0
1 -69 -47 0
1 -69 -34 0
1 69 81 0
1 -69 19 0
1 69 -46 0
1 -69 36 0
1 66 71 0
1 -66 -39 0
1 66 16 0
1 -66 21 0
1 -66 80 0
1 66 82 0
1 66 -73 0
1 66 -40 0
1 -66 -23 0
1 -66 -83 0
1 -66 -84 0
1 68 82 0
1 -68 40 0
1 68 -19 0
1 68 23 0
1 68 85 0
1 68 -83 0
1 -34 9 0
1 -34 10 0
1 -34 28 0
1 34 -67 0
1 -34 -73 0
1 -34 -12 0
1 -34 -78 0
1 -34 -13 0
1 -34 30 0
1 -34 -69 0
1 34 -36 0
1 -36 -71 0
1 -36 18 0
1 36 -10 0
1 -36 67 0
1 36 22 0
1 36 -34 0
1 36 -78 0
1 36 -13 0
1 36 30 0
1 36 69 0
1 47 -18 0
1 47 86 0
1 -47 -37 0
1 47 67 0
1 -47 -22 0
1 47 -46 0
1 -47 79 0
1 -46 -18 0
1 46 28 0
1 -46 -67 0
1 -46 47 0
1 -46 22 0
1 -46 78 0
1 -46 87 0
1 -46 -35 0
1 46 -30 0
1 46 69 0
1 -46 84 0
1 78 -39 0
1 78 88 0
1 78 89 0
1 -78 45 0
1 78 47 0
1 78 -34 0
1 -78 -4 0
1 78 -90 0
1 -78 40 0
1 78 -43 0
1 -78 46 0
1 -78 36 0
1 -18 91 0
1 18 -39 0
1 -18 89 0
1 18 -45 0
1 -18 -47 0
1 -18 78 0
1 18 -40 0
1 -18 6 0
1 -18 -92 0
1 18 43 0
1 -18 -46 0
1 -18 36 0
1 -22 93 0
1 -22 80 0
1 22 -47 0
1 22 -34 0
1 -22 -94 0
1 -22 40 0
1 22 95 0
1 22 83 0
1 -22 -46 0
1 22 79 0
1 -22 -36 0
1 79 39 0
1 79 -88 0
1 79 -47 0
1 -79 -22 0
1 -79 34 0
1 79 -40 0
1 -79 -5 0
1 79 -96 0
1 79 -95 0
1 79 46 0
1 79 -97 0
1 -79 -36 0
1 45 18 0
1 45 -86 0
1 -45 -37 0
1 45 -29 0
1 -45 -78 0
1 -45 -87 0
1 -45 -30 0
1 45 -31 0
1 43 -18 0
1 -43 86 0
1 -43 -37 0
1 -43 -28 0
1 43 29 0
1 -43 -45 0
1 43 -78 0
1 43 -35 0
1 -43 -31 0
1 43 -83 0
1 89 -18 0
1 89 86 0
1 -89 -37 0
1 89 -92 0
1 -89 44 0
1 -89 -35 0
1 92 -18 0
1 -92 86 0
1 -92 37 0
1 -92 44 0
1 -92 -89 0
1 -92 -78 0
1 -92 -87 0
1 92 -35 0
1 -92 -95 0
1 -35 98 0
1 -35 99 0
1 -35 -89 0
1 -35 47 0
1 -35 100 0
1 -35 13 0
1 35 101 0
1 -35 102 0
1 -35 92 0
1 35 -43 0
1 35 -46 0
1 37 -10 0
1 37 98 0
1 37 103 0
1 -37 104 0
1 -37 -99 0
1 37 89 0
1 37 -45 0
1 37 -100 0
1 37 101 0
1 -37 -35 0
1 37 105 0
1 -37 46 0
1 87 106 0
1 87 -45 0
1 -87 47 0
1 -87 -12 0
1 -87 -96 0
1 -87 -46 0
1 86 9 0
1 -86 -107 0
1 86 -89 0
1 86 47 0
1 86 -100 0
1 -86 108 0
1 86 -96 0
1 86 -92 0
1 86 -46 0
1 99 37 0
1 -99 -44 0
1 -99 -88 0
1 -99 -109 0
1 -99 35 0
1 99 42 0
1 105 -110 0
1 -105 99 0
1 105 44 0
1 -105 -35 0
1 -105 109 0
1 -105 -96 0
1 105 -42 0
1 104 37 0
1 104 -101 0
1 -104 35 0
1 104 42 0
1 -101 -110 0
1 -101 35 0
1 101 -109 0
1 -101 42 0
1 42 111 0
1 -42 -99 0
1 42 44 0
1 -42 -89 0
1 42 112 0
1 -42 101 0
1 42 -92 0
1 42 -113 0
1 -44 -104 0
1 -44 29 0
1 44 -99 0
1 44 -114 0
1 44 -89 0
1 -44 -101 0
1 -44 105 0
1 -44 92 0
1 -44 -42 0
1 -109 -115 0
1 -109 98 0
1 -109 -104 0
1 -109 99 0
1 109 -89 0
1 -109 -112 0
1 109 116 0
1 109 -100 0
1 109 101 0
1 -109 105 0
1 109 117 0
1 109 -92 0
1 -110 111 0
1 110 -115 0
1 110 98 0
1 -110 -118 0
1 110 89 0
1 110 112 0
1 -110 116 0
1 -110 -109 0
1 110 -100 0
1 110 -101 0
1 119 120 0
1 119 121 0
1 -119 122 0
1 119 123 0
1 -122 -121 0
1 122 -7 0
1 -122 123 0
1 122 -119 0
1 124 -125 0
1 -124 -126 0
1 124 -127 0
1 124 -128 0
1 -124 123 0
1 -124 129 0
1 -124 -14 0
1 126 -120 0
1 126 125 0
1 -126 -128 0
1 -126 -130 0
1 126 123 0
1 123 70 0
1 -123 -62 0
1 -123 -126 0
1 123 122 0
1 123 131 0
1 123 65 0
1 -123 -124 0
1 123 -119 0
1 -121 123 0
1 -121 -132 0
1 121 -62 0
1 121 -122 0
1 121 63 0
1 121 65 0
1 121 -124 0
1 121 119 0
1 128 -133 0
1 128 -120 0
1 -128 126 0
1 128 -122 0
1 -128 -124 0
1 -128 -119 0
1 120 134 0
1 120 -126 0
1 120 122 0
1 -120 119 0
1 -65 51 0
1 -65 -125 0
1 65 127 0
1 -65 49 0
1 -65 -123 0
1 65 -24 0
1 -65 -129 0
1 -65 -130 0
1 62 51 0
1 -62 121 0
1 -62 27 0
1 62 -125 0
1 62 127 0
1 -62 -49 0
1 62 -123 0
1 62 -65 0
1 62 -130 0
1 63 -70 0
1 -63 -125 0
1 63 -135 0
1 63 -136 0
1 63 49 0
1 63 23 0
1 63 -123 0
1 63 130 0
1 70 -137 0
1 -70 51 0
1 70 -123 0
1 70 -121 0
1 70 -125 0
1 70 135 0
1 70 136 0
1 70 49 0
1 70 -63 0
1 70 129 0
1 -70 130 0
1 -130 70 0
1 130 -62 0
1 130 127 0
1 -130 63 0
1 130 -65 0
1 -130 124 0
1 -130 -138 0
1 -127 139 0
1 127 -77 0
1 127 57 0
1 -127 -70 0
1 -127 -62 0
1 127 140 0
1 -127 59 0
1 -127 -130 0
1 127 65 0
1 127 -124 0
1 -129 -139 0
1 -129 -70 0
1 129 -62 0
1 129 125 0
1 -129 126 0
1 129 63 0
1 -129 -65 0
1 -129 -141 0
1 -129 -124 0
1 -125 139 0
1 125 -62 0
1 -125 142 0
1 -125 126 0
1 125 -129 0
1 125 -143 0
1 -125 63 0
1 -125 65 0
1 125 -124 0
1 -59 -52 0
1 -59 57 0
1 59 -53 0
1 -59 127 0
1 -59 135 0
1 -59 -49 0
1 -59 -50 0
1 -59 19 0
1 -59 144 0
1 57 -51 0
1 57 -52 0
1 57 127 0
1 -57 135 0
1 -57 136 0
1 -57 -55 0
1 -57 -59 0
1 -57 130 0
1 -57 -144 0
1 76 137 0
1 76 77 0
1 76 58 0
1 -76 -136 0
1 -76 64 0
1 76 -40 0
1 -76 130 0
1 76 144 0
1 77 137 0
1 77 39 0
1 -77 -61 0
1 77 53 0
1 -77 127 0
1 77 135 0
1 77 -76 0
1 77 -55 0
1 137 -71 0
1 -137 145 0
1 -137 77 0
1 -137 -57 0
1 -137 70 0
1 137 146 0
1 137 82 0
1 137 136 0
1 137 -59 0
1 137 63 0
1 -137 -84 0
1 136 -71 0
1 136 137 0
1 136 77 0
1 136 57 0
1 136 -70 0
1 136 -146 0
1 -136 82 0
1 -136 -147 0
1 -136 76 0
1 -136 -59 0
1 136 63 0
1 -136 -148 0
1 -136 -84 0
1 144 -77 0
1 -144 -57 0
1 -144 70 0
1 -144 -135 0
1 -144 -146 0
1 144 -143 0
1 144 63 0
1 -144 148 0
1 -144 -149 0
1 -135 139 0
1 135 -77 0
1 135 -57 0
1 -135 70 0
1 135 146 0
1 135 -150 0
1 -135 151 0
1 135 -143 0
1 -135 76 0
1 -135 -59 0
1 -135 63 0
1 -135 148 0
1 135 -149 0
1 73 -71 0
1 73 137 0
1 -73 61 0
1 -73 -58 0
1 -73 -54 0
1 73 -136 0
1 -73 34 0
1 73 143 0
1 -73 64 0
1 73 -60 0
1 -73 56 0
1 -73 68 0
1 -71 137 0
1 71 139 0
1 71 54 0
1 -71 -66 0
1 -71 136 0
1 -71 -73 0
1 71 -64 0
1 71 -55 0
1 -71 56 0
1 -71 -68 0
1 -71 -36 0
1 82 137 0
1 -82 -61 0
1 -82 58 0
1 82 -75 0
1 -82 -72 0
1 82 136 0
1 -82 -151 0
1 -82 -60 0
1 82 -152 0
1 -82 -74 0
1 82 -68 0
1 84 137 0
1 -84 61 0
1 -84 58 0
1 -84 72 0
1 84 82 0
1 -84 136 0
1 -84 -64 0
1 84 -74 0
1 -84 -68 0
1 -84 -46 0
1 84 149 0
1 58 71 0
1 58 -77 0
1 -58 -52 0
1 58 -153 0
1 -58 -82 0
1 -58 73 0
1 -58 76 0
1 -58 60 0
1 -60 71 0
1 -60 77 0
1 60 58 0
1 60 93 0
1 60 -82 0
1 60 73 0
1 -60 154 0
1 -60 -155 0
1 -60 -95 0
1 60 84 0
1 -61 71 0
1 -61 77 0
1 61 -156 0
1 61 157 0
1 61 158 0
1 61 73 0
1 61 -64 0
1 61 148 0
1 64 -71 0
1 -64 61 0
1 64 157 0
1 -64 158 0
1 -64 73 0
1 64 49 0
1 64 159 0
1 64 -76 0
1 64 -148 0
1 -80 -58 0
1 -80 75 0
1 -80 72 0
1 80 -66 0
1 80 45 0
1 80 -67 0
1 -80 -146 0
1 80 22 0
1 -80 -60 0
1 -80 -152 0
1 -80 -74 0
1 80 -83 0
1 -80 79 0
1 83 -58 0
1 -83 -75 0
1 -83 72 0
1 83 66 0
1 -83 69 0
1 -83 67 0
1 -83 22 0
1 -83 -60 0
1 83 152 0
1 -83 74 0
1 83 68 0
1 83 43 0
1 -83 148 0
1 -83 79 0
1 -93 75 0
1 -93 160 0
1 93 158 0
1 93 -161 0
1 93 60 0
1 93 -152 0
1 93 74 0
1 -93 95 0
1 93 79 0
1 -95 75 0
1 -95 -93 0
1 95 -160 0
1 95 161 0
1 95 22 0
1 -95 -60 0
1 -95 152 0
1 95 -74 0
1 -95 85 0
1 95 162 0
1 95 -81 0
1 95 -79 0
1 72 -74 0
1 -72 -163 0
1 72 106 0
1 72 54 0
1 -72 88 0
1 -72 -164 0
1 -72 93 0
1 72 108 0
1 72 -96 0
1 72 -95 0
1 -72 84 0
1 74 -88 0
1 -74 -72 0
1 74 93 0
1 74 -82 0
1 -74 165 0
1 -74 -108 0
1 74 56 0
1 -74 -96 0
1 -74 83 0
1 75 163 0
1 75 -166 0
1 -75 157 0
1 -75 -93 0
1 -75 -80 0
1 -75 -82 0
1 75 -167 0
1 -75 155 0
1 -75 83 0
1 75 -84 0
1 -152 -163 0
1 -152 -166 0
1 -152 80 0
1 -152 82 0
1 -152 -167 0
1 -152 155 0
1 152 95 0
1 152 84 0
1 88 -86 0
1 -88 -99 0
1 -88 -72 0
1 -88 160 0
1 -88 78 0
1 -88 87 0
1 88 96 0
1 88 -85 0
1 -88 -81 0
1 88 -79 0
1 96 -18 0
1 96 86 0
1 96 -88 0
1 -96 -160 0
1 96 161 0
1 -96 -22 0
1 -96 78 0
1 -96 87 0
1 96 74 0
1 96 -155 0
1 96 81 0
1 96 79 0
1 106 -91 0
1 -106 -86 0
1 106 -104 0
1 -106 -166 0
1 -106 72 0
1 -106 160 0
1 -106 161 0
1 106 -90 0
1 106 108 0
1 106 -74 0
1 106 -85 0
1 -106 -81 0
1 108 91 0
1 -108 86 0
1 108 72 0
1 108 160 0
1 108 161 0
1 -108 94 0
1 108 -90 0
1 -108 167 0
1 -108 -74 0
1 108 -81 0
1 161 -168 0
1 -161 115 0
1 -161 -98 0
1 161 -88 0
1 161 93 0
1 161 67 0
1 -161 169 0
1 161 -116 0
1 -161 96 0
1 -161 -81 0
1 -81 115 0
1 81 98 0
1 -81 106 0
1 81 -88 0
1 81 -93 0
1 -81 161 0
1 81 100 0
1 81 -108 0
1 -81 -96 0
1 81 69 0
1 160 -106 0
1 160 -85 0
1 -160 88 0
1 -160 -93 0
1 160 170 0
1 160 169 0
1 160 171 0
1 -160 -165 0
1 -160 -108 0
1 -160 -96 0
1 85 172 0
1 -85 163 0
1 -85 106 0
1 -85 -160 0
1 85 -169 0
1 85 171 0
1 85 -165 0
1 85 108 0
1 -85 96 0
1 85 68 0
1 85 95 0
1 85 173 0
1 -98 -86 0
1 -98 37 0
1 -98 161 0
1 -98 -90 0
1 -98 -100 0
1 98 87 0
1 -98 -35 0
1 -98 -109 0
1 98 81 0
1 -98 -97 0
1 100 -91 0
1 -100 86 0
1 100 98 0
1 -100 -110 0
1 100 -161 0
1 -100 -94 0
1 -100 90 0
1 -100 -87 0
1 100 -165 0
1 -100 -35 0
1 100 109 0
1 100 81 0
1 -100 -97 0
1 115 -91 0
1 -115 -172 0
1 -115 161 0
1 115 -94 0
1 -115 116 0
1 115 -90 0
1 115 81 0
1 116 91 0
1 116 115 0
1 -116 -107 0
1 116 -103 0
1 -116 110 0
1 -116 161 0
1 116 -94 0
1 116 -171 0
1 -116 -90 0
1 116 -102 0
1 116 -109 0
1 -116 -81 0
1 -116 97 0
1 -90 -111 0
1 90 -91 0
1 90 -106 0
1 -90 174 0
1 -90 -175 0
1 -90 -116 0
1 90 -78 0
1 -90 -108 0
1 -90 -176 0
1 91 -111 0
1 91 -18 0
1 -91 -106 0
1 91 -174 0
1 91 112 0
1 91 116 0
1 -91 -90 0
1 -91 100 0
1 91 -176 0
1 -91 177 0
1 -94 168 0
1 94 115 0
1 94 -98 0
1 94 106 0
1 94 174 0
1 -94 -178 0
1 -94 -22 0
1 -94 116 0
1 -94 100 0
1 94 -108 0
1 94 176 0
1 94 97 0
1 -97 -168 0
1 97 115 0
1 97 98 0
1 -97 -174 0
1 -97 178 0
1 -97 169 0
1 97 116 0
1 97 -100 0
1 97 176 0
1 97 79 0
1 -97 179 0
1 111 -91 0
1 -111 -107 0
1 -111 -110 0
1 -111 44 0
1 111 112 0
1 111 90 0
1 -111 -180 0
1 -111 102 0
1 111 -42 0
1 112 107 0
1 112 103 0
1 -112 44 0
1 112 -90 0
1 -112 180 0
1 -112 109 0
1 112 -42 0
1 177 -107 0
1 -177 -103 0
1 177 -118 0
1 177 -175 0
1 -177 102 0
1 -177 -113 0
1 177 179 0
1 -175 -91 0
1 -175 -103 0
1 -175 -118 0
1 175 90 0
1 -175 180 0
1 175 -117 0
1 102 -111 0
1 -102 115 0
1 -102 -103 0
1 102 -181 0
1 -102 -175 0
1 -102 35 0
1 102 182 0
1 -102 177 0
1 -103 -111 0
1 -103 115 0
1 -103 37 0
1 103 175 0
1 103 -116 0
1 -103 -102 0
1 -103 182 0
1 -103 -183 0
1 -180 -111 0
1 180 -115 0
1 180 184 0
1 180 -174 0
1 180 175 0
1 -180 -112 0
1 180 116 0
1 180 87 0
1 -180 176 0
1 180 -177 0
1 107 -111 0
1 107 115 0
1 107 -86 0
1 -107 -184 0
1 -107 174 0
1 -107 -116 0
1 107 -185 0
1 -107 176 0
1 -107 -177 0
1 183 -103 0
1 -183 118 0
1 183 -181 0
1 183 -102 0
1 183 176 0
1 181 -103 0
1 -181 118 0
1 -181 114 0
1 -181 -174 0
1 -181 102 0
1 181 117 0
1 181 -113 0
1 181 183 0
1 -182 -103 0
1 182 -118 0
1 182 186 0
1 182 -114 0
1 -182 -117 0
1 182 -113 0
1 -182 185 0
1 -186 118 0
1 186 114 0
1 -186 102 0
1 -186 -117 0
1 -186 -182 0
1 -113 181 0
1 113 -42 0
1 113 183 0
1 -113 -177 0
1 -114 113 0
1 -114 -44 0
1 -114 -186 0
1 114 181 0
1 -114 175 0
1 114 -182 0
1 114 -183 0
1 117 -118 0
1 -117 186 0
1 -117 181 0
1 117 175 0
1 -117 183 0
1 -118 110 0
1 118 -186 0
1 -118 181 0
1 -118 175 0
1 -118 117 0
1 118 -182 0
1 -118 -183 0
1 118 177 0
1 -143 -139 0
1 143 -132 0
1 -143 -125 0
1 143 133 0
1 -143 131 0
1 143 129 0
1 -139 71 0
1 -139 134 0
1 139 -132 0
1 139 125 0
1 -139 -127 0
1 -139 135 0
1 -139 131 0
1 -139 -129 0
1 -139 130 0
1 139 144 0
1 -151 134 0
1 -151 132 0
1 -151 135 0
1 151 133 0
1 151 -141 0
1 -151 138 0
1 151 144 0
1 149 -132 0
1 149 135 0
1 -149 151 0
1 149 133 0
1 -149 -131 0
1 149 -144 0
1 -149 84 0
1 131 -132 0
1 131 -158 0
1 -131 -146 0
1 131 187 0
1 -131 -151 0
1 131 162 0
1 131 149 0
1 -132 -139 0
1 132 121 0
1 -132 -188 0
1 132 -158 0
1 -132 -146 0
1 -132 -151 0
1 -132 -143 0
1 132 149 0
1 -133 134 0
1 -133 -151 0
1 -133 143 0
1 133 189 0
1 134 -139 0
1 -134 -120 0
1 134 143 0
1 -146 -137 0
1 -146 61 0
1 -146 -132 0
1 146 142 0
1 146 -140 0
1 -146 -80 0
1 -146 -136 0
1 -146 64 0
1 -146 141 0
1 -146 -138 0
1 146 -148 0
1 146 -144 0
1 148 144 0
1 148 61 0
1 -148 -132 0
1 148 140 0
1 148 -146 0
1 148 -136 0
1 -148 -131 0
1 -158 61 0
1 158 132 0
1 -158 -142 0
1 158 -93 0
1 158 140 0
1 -158 147 0
1 158 141 0
1 158 -131 0
1 -158 -162 0
1 -158 -138 0
1 -158 190 0
1 162 -145 0
1 162 61 0
1 -162 -132 0
1 162 158 0
1 -162 -140 0
1 162 147 0
1 -162 64 0
1 162 95 0
1 162 141 0
1 162 -138 0
1 162 -190 0
1 -138 -191 0
1 -138 146 0
1 138 192 0
1 138 -167 0
1 -138 155 0
1 -138 -148 0
1 138 -193 0
1 -138 -149 0
1 140 -191 0
1 -140 -157 0
1 140 127 0
1 140 -158 0
1 -140 -146 0
1 140 -167 0
1 140 162 0
1 140 -149 0
1 141 129 0
1 -141 -192 0
1 141 194 0
1 141 149 0
1 142 191 0
1 142 -125 0
1 142 -158 0
1 142 146 0
1 -142 -151 0
1 -142 -162 0
1 142 -148 0
1 157 -145 0
1 -157 -88 0
1 157 140 0
1 -157 -64 0
1 -157 -155 0
1 -157 -138 0
1 157 -190 0
1 155 145 0
1 -155 -75 0
1 -155 -157 0
1 -155 -150 0
1 155 -147 0
1 155 64 0
1 155 152 0
1 155 -96 0
1 -155 -138 0
1 155 -190 0
1 166 156 0
1 -166 -153 0
1 166 147 0
1 -166 -152 0
1 -166 -167 0
1 -166 190 0
1 167 156 0
1 -167 -153 0
1 -167 -166 0
1 167 140 0
1 167 -147 0
1 167 159 0
1 -167 -152 0
1 -167 -108 0
1 -167 190 0
1 -145 -137 0
1 145 195 0
1 145 172 0
1 145 163 0
1 -145 -157 0
1 145 -147 0
1 145 171 0
1 -145 165 0
1 -145 -155 0
1 -145 -162 0
1 -147 145 0
1 -147 -172 0
1 -147 163 0
1 147 166 0
1 147 157 0
1 -147 196 0
1 147 197 0
1 -147 -167 0
1 147 155 0
1 190 -198 0
1 190 195 0
1 190 -199 0
1 -190 166 0
1 -190 -157 0
1 -190 158 0
1 -190 196 0
1 190 155 0
1 190 -144 0
1 150 195 0
1 150 -166 0
1 -150 -158 0
1 -150 135 0
1 -150 196 0
1 -150 192 0
1 -150 162 0
1 -150 -190 0
1 163 145 0
1 -163 -98 0
1 163 191 0
1 163 75 0
1 163 153 0
1 163 72 0
1 163 160 0
1 163 147 0
1 -163 -159 0
1 -163 -165 0
1 163 -154 0
1 163 -85 0
1 165 156 0
1 -165 163 0
1 165 153 0
1 -165 75 0
1 -165 -72 0
1 165 160 0
1 165 -147 0
1 -165 -100 0
1 165 192 0
1 165 -152 0
1 165 154 0
1 -165 85 0
1 -172 -145 0
1 172 -115 0
1 172 -156 0
1 -172 153 0
1 172 -200 0
1 172 -164 0
1 172 160 0
1 -172 147 0
1 -172 171 0
1 -172 201 0
1 172 202 0
1 172 -85 0
1 -171 156 0
1 171 -153 0
1 171 -200 0
1 -171 160 0
1 -171 -147 0
1 171 203 0
1 171 -159 0
1 171 -201 0
1 -171 202 0
1 171 -85 0
1 -153 -168 0
1 -153 172 0
1 -153 -163 0
1 -153 -204 0
1 153 169 0
1 -153 -171 0
1 153 154 0
1 153 -167 0
1 154 -168 0
1 -154 -153 0
1 154 -204 0
1 -154 -171 0
1 -154 -165 0
1 154 60 0
1 154 -167 0
1 -156 205 0
1 -156 195 0
1 156 166 0
1 -156 204 0
1 -156 171 0
1 -156 159 0
1 156 165 0
1 156 167 0
1 -159 -205 0
1 159 -195 0
1 -159 -172 0
1 159 -156 0
1 159 -204 0
1 -159 -206 0
1 159 196 0
1 159 -64 0
1 159 165 0
1 -159 167 0
1 -168 -195 0
1 -168 153 0
1 -168 -164 0
1 168 -160 0
1 -168 -161 0
1 168 -169 0
1 -168 94 0
1 168 -202 0
1 -169 -168 0
1 -169 -153 0
1 -169 200 0
1 169 -164 0
1 -169 161 0
1 169 -196 0
1 169 -81 0
1 -169 -97 0
1 179 205 0
1 179 153 0
1 -179 170 0
1 -179 -178 0
1 179 -207 0
1 -179 -94 0
1 -179 -202 0
1 -179 -173 0
1 -179 -208 0
1 179 -177 0
1 179 -97 0
1 178 -200 0
1 -178 -164 0
1 178 179 0
1 -178 170 0
1 -178 175 0
1 -178 207 0
1 -178 94 0
1 -178 -154 0
1 178 201 0
1 178 -202 0
1 178 208 0
1 178 97 0
1 164 168 0
1 164 172 0
1 -164 -202 0
1 -164 184 0
1 -164 174 0
1 -164 -169 0
1 -164 -185 0
1 -164 -176 0
1 -164 -179 0
1 202 178 0
1 -202 -169 0
1 -202 -74 0
1 202 176 0
1 -202 179 0
1 200 168 0
1 200 -172 0
1 -200 -75 0
1 200 209 0
1 -200 204 0
1 200 169 0
1 -200 -201 0
1 200 -210 0
1 -201 -168 0
1 -201 -172 0
1 -201 200 0
1 201 -209 0
1 -201 178 0
1 201 169 0
1 201 171 0
1 -201 -210 0
1 -201 -179 0
1 176 91 0
1 -176 -164 0
1 176 -174 0
1 176 170 0
1 176 94 0
1 -176 -90 0
1 -176 -180 0
1 176 -183 0
1 -176 -208 0
1 176 -97 0
1 -174 -91 0
1 174 107 0
1 -174 164 0
1 -174 181 0
1 -174 170 0
1 -174 -204 0
1 174 207 0
1 -174 -94 0
1 -174 -90 0
1 -174 -208 0
1 -174 -202 0
1 174 176 0
1 185 184 0
1 185 -170 0
1 -185 -207 0
1 185 202 0
1 -185 173 0
1 185 210 0
1 -185 -208 0
1 -184 -107 0
1 -184 186 0
1 184 -209 0
1 -184 170 0
1 -184 173 0
1 184 180 0
1 -184 -202 0
1 184 -208 0
1 -207 208 0
1 -207 -185 0
1 207 176 0
1 207 -179 0
1 -208 174 0
1 -208 178 0
1 -208 -207 0
1 208 -185 0
1 -208 -81 0
1 208 -179 0
1 170 -178 0
1 170 173 0
1 -170 185 0
1 -173 174 0
1 -173 85 0
1 -173 185 0
1 -173 -176 0
1 -173 179 0
1 191 163 0
1 -191 188 0
1 191 142 0
1 191 140 0
1 -191 -150 0
1 -191 -192 0
1 -191 -189 0
1 191 -187 0
1 -191 -141 0
1 191 190 0
1 192 -191 0
1 192 -211 0
1 -192 140 0
1 192 -150 0
1 -192 165 0
1 192 189 0
1 192 141 0
1 192 -138 0
1 -192 -190 0
1 -199 188 0
1 -199 -212 0
1 199 150 0
1 -199 -203 0
1 -199 189 0
1 199 187 0
1 -199 190 0
1 203 211 0
1 203 -188 0
1 203 212 0
1 -203 150 0
1 203 171 0
1 203 -187 0
1 -203 -194 0
1 203 190 0
1 -187 205 0
1 -187 -195 0
1 -187 -199 0
1 -187 191 0
1 -187 188 0
1 187 -206 0
1 -187 203 0
1 187 192 0
1 -187 -131 0
1 -188 -195 0
1 -188 -191 0
1 -188 196 0
1 -188 203 0
1 -188 -192 0
1 -188 187 0
1 -189 199 0
1 -189 -191 0
1 -189 203 0
1 189 -192 0
1 -211 191 0
1 211 -189 0
1 -211 134 0
1 -211 -203 0
1 -211 -192 0
1 -195 -168 0
1 -195 -145 0
1 -195 -156 0
1 -195 -188 0
1 -195 213 0
1 -195 212 0
1 -195 -147 0
1 -195 196 0
1 195 -159 0
1 195 187 0
1 -195 194 0
1 195 193 0
1 195 190 0
1 196 195 0
1 196 156 0
1 -196 213 0
1 196 169 0
1 -196 147 0
1 -196 159 0
1 196 -194 0
1 -196 -193 0
1 196 190 0
1 -205 156 0
1 -205 -188 0
1 205 -214 0
1 205 -197 0
1 205 159 0
1 205 -187 0
1 -205 194 0
1 205 -179 0
1 -206 -205 0
1 206 -198 0
1 206 215 0
1 206 -156 0
1 206 -188 0
1 206 212 0
1 -206 178 0
1 206 -214 0
1 -206 -187 0
1 -206 -194 0
1 -206 193 0
1 193 -195 0
1 193 -199 0
1 193 -209 0
1 -193 -204 0
1 193 196 0
1 -193 203 0
1 -193 -210 0
1 193 -138 0
1 212 -195 0
1 -212 -199 0
1 -212 -209 0
1 -212 -204 0
1 -212 206 0
1 -212 196 0
1 212 203 0
1 212 193 0
1 -194 205 0
1 194 199 0
1 194 196 0
1 -194 -203 0
1 194 -141 0
1 -213 -205 0
1 -213 -195 0
1 -213 199 0
1 213 142 0
1 213 206 0
1 213 -196 0
1 213 -194 0
1 -204 -198 0
1 204 -200 0
1 -204 174 0
1 204 -214 0
1 -204 197 0
1 204 -159 0
1 -204 154 0
1 -204 201 0
1 -210 198 0
1 -210 -215 0
1 -210 -200 0
1 -210 209 0
1 210 -212 0
1 -210 214 0
1 210 197 0
1 -210 201 0
1 -210 193 0
1 -209 198 0
1 209 -215 0
1 -209 -200 0
1 209 -184 0
1 -209 -212 0
1 209 214 0
1 209 -197 0
1 -209 -201 0
1 209 -210 0
1 209 193 0
1 -215 -205 0
1 -215 -145 0
1 -215 -209 0
1 -215 -204 0
1 -215 206 0
1 215 -197 0
1 -215 210 0
1 197 205 0
1 -197 215 0
1 -197 206 0
1 -197 147 0
1 -197 210 0
1 198 -205 0
1 -198 209 0
1 198 -214 0
1 198 210 0
1 198 -190 0
1 -214 -205 0
1 -214 198 0
1 214 209 0
1 214 -204 0
1 214 150 0
1 -214 -206 0
1 -214 210 0
